400
500
350
349
347
346
346
346
345
345
345
344
343
341
339
339
338
337
337
336
334
334
333
332
330
328
328
328
328
327
327
327
327
327
326
325
324
323
323
322
319
319
319
318
317
316
316
316
314
313
313
313
312
311
311
310
310
309
309
309
308
308
307
306
306
304
304
303
302
301
301
300
300
300
300
299
299
298
298
297
297
297
294
294
293
292
292
292
290
290
289
289
288
288
287
286
286
286
286
285
284
284
282
282
282
282
281
280
279
279
278
277
276
276
275
275
274
272
272
272
271
271
271
271
270
269
268
268
268
266
264
264
264
263
261
261
261
260
260
260
259
258
258
257
257
257
257
255
255
254
250
250
248
247
247
245
245
245
245
244
244
244
242
241
239
238
236
235
234
233
231
231
230
229
229
228
227
227
227
227
226
226
226
225
224
222
222
222
220
219
218
217
217
216
216
216
216
215
214
214
214
213
213
213
210
209
207
206
206
206
205
204
204
204
204
203
201
200
199
197
197
196
195
194
194
193
193
192
192
192
191
190
190
190
190
188
188
185
185
185
183
182
182
181
180
179
179
177
177
177
176
176
175
174
173
171
170
170
168
168
167
166
165
165
165
165
164
163
162
162
160
160
160
157
157
157
153
152
151
150
150
150
149
149
149
148
145
144
143
143
142
142
142
141
140
140
139
139
139
138
138
138
137
136
134
134
133
132
130
129
128
127
127
126
125
125
124
124
124
122
118
117
116
113
110
110
109
109
108
106
105
105
105
105
104
103
102
102
101
101
101
100
99
98
98
98
97
96
93
93
93
93
93
92
92
92
92
92
90
89
88
88
87
87
84
83
83
83
83
82
81
78
78
77
77
76
76
75
71
71
70
70
68
66
66
63
62
62
62
62
62
62
61
61
61
61
59
58
57
57
53
52
